Gurobi Optimizer version 9.1.2 build v9.1.2rc0 (linux64)
Thread count: 36 physical cores, 72 logical processors, using up to 32 threads
Optimize a model with 12 rows, 57 columns and 590 nonzeros
Model fingerprint: 0xf32eec78
Model has 47 quadratic constraints
Coefficient statistics:
  Matrix range     [2e-05, 3e+00]
  QMatrix range    [1e+00, 1e+00]
  QLMatrix range   [1e+00, 1e+00]
  Objective range  [8e-03, 7e-01]
  Bounds range     [1e+00, 1e+00]
  RHS range        [1e+00, 1e+00]
Presolve removed 9 rows and 0 columns

Continuous model is non-convex -- solving as a MIP.

Presolve removed 9 rows and 0 columns
Presolve time: 0.00s
Presolved: 189 rows, 57 columns, 443 nonzeros
Presolved model has 47 bilinear constraint(s)
Variable types: 57 continuous, 0 integer (0 binary)

Root relaxation: objective -1.743721e+00, 44 iterations, 0.00 seconds

    Nodes    |    Current Node    |     Objective Bounds      |     Work
 Expl Unexpl |  Obj  Depth IntInf | Incumbent    BestBd   Gap | It/Node Time

     0     0   -1.74372    0   38          -   -1.74372      -     -    0s
H    0     0                       0.6147548   -1.74372   384%     -    0s
     0     0   -1.64739    0    1    0.61475   -1.64739   368%     -    0s
H    0     0                      -1.6450460   -1.64739  0.14%     -    0s
     0     0     cutoff    0        -1.64505   -1.64505  0.00%     -    0s

Cutting planes:
  RLT: 25
  BQP: 3

Explored 1 nodes (76 simplex iterations) in 0.01 seconds
Thread count was 32 (of 72 available processors)

Solution count 2: -1.64505 0.614755 
No other solutions better than -1.64505

Optimal solution found (tolerance 1.00e-04)
Best objective -1.645045978473e+00, best bound -1.645045978473e+00, gap 0.0000%

User-callback calls 78, time in user-callback 0.00 sec
Gurobi Optimizer version 9.1.2 build v9.1.2rc0 (linux64)
Thread count: 36 physical cores, 72 logical processors, using up to 32 threads
Optimize a model with 60 rows, 312 columns and 16100 nonzeros
Model fingerprint: 0x5b13cae7
Model has 262 quadratic constraints
Coefficient statistics:
  Matrix range     [4e-07, 7e+00]
  QMatrix range    [1e+00, 1e+00]
  QLMatrix range   [1e+00, 1e+00]
  Objective range  [2e-04, 8e-01]
  Bounds range     [1e+00, 1e+00]
  RHS range        [1e+00, 1e+00]
Presolve removed 14 rows and 0 columns

Continuous model is non-convex -- solving as a MIP.

Presolve removed 14 rows and 0 columns
Presolve time: 0.01s
Presolved: 1082 rows, 312 columns, 13760 nonzeros
Presolved model has 262 bilinear constraint(s)
Variable types: 312 continuous, 0 integer (0 binary)

Root relaxation: objective -1.201792e+01, 337 iterations, 0.02 seconds

    Nodes    |    Current Node    |     Objective Bounds      |     Work
 Expl Unexpl |  Obj  Depth IntInf | Incumbent    BestBd   Gap | It/Node Time

     0     0  -12.01792    0  125          -  -12.01792      -     -    0s
     0     0  -11.73616    0   48          -  -11.73616      -     -    0s
     0     0  -11.68706    0   48          -  -11.68706      -     -    0s
     0     0  -11.62539    0   45          -  -11.62539      -     -    0s
     0     0  -11.61742    0   45          -  -11.61742      -     -    0s
     0     0  -11.61153    0   45          -  -11.61153      -     -    0s
     0     0  -11.61152    0   45          -  -11.61152      -     -    0s
H    0     0                     -11.3166312  -11.61152  2.61%     -    0s
     0     2  -11.61152    0   45  -11.31663  -11.61152  2.61%     -    0s
*  966   338              35     -11.3166459  -11.40917  0.82%  27.6    1s
* 1067   390              35     -11.3166576  -11.40917  0.82%  26.5    1s
* 1069   390              36     -11.3166577  -11.40917  0.82%  26.4    1s
* 1233   481              38     -11.3169499  -11.40917  0.81%  25.4    1s
* 1335   499              39     -11.3169852  -11.40917  0.81%  24.4    1s
* 1336   499              39     -11.3169867  -11.40917  0.81%  24.4    1s
* 1337   499              37     -11.3169950  -11.40917  0.81%  24.3    1s
* 1745   690              42     -11.3171190  -11.40917  0.81%  21.8    1s
* 1846   743              39     -11.3172994  -11.40917  0.81%  21.3    1s
* 1974   778              48     -11.3253291  -11.38355  0.51%  20.8    1s
* 2743   998              44     -11.3261435  -11.38355  0.51%  18.2    1s
* 3033  1076              46     -11.3263086  -11.38355  0.51%  17.6    1s
* 3038  1076              48     -11.3263344  -11.38355  0.51%  17.6    1s
* 3171  1144              48     -11.3263352  -11.38355  0.51%  17.6    1s
* 3233  1144              39     -11.3264468  -11.38355  0.50%  17.4    1s
* 3235  1144              39     -11.3266439  -11.38355  0.50%  17.4    1s
* 3236  1144              39     -11.3266481  -11.38355  0.50%  17.4    1s
* 3368  1213              40     -11.3266513  -11.37370  0.42%  17.2    2s
* 3517  1296              40     -11.3266560  -11.37370  0.42%  16.9    2s
* 3697  1400              41     -11.3267300  -11.37215  0.40%  16.6    2s
* 3700  1400              41     -11.3267700  -11.37215  0.40%  16.6    2s
* 3881  1505              44     -11.3305403  -11.37215  0.37%  16.4    2s
* 3885  1505              46     -11.3305414  -11.37215  0.37%  16.4    2s
* 4602  1713              44     -11.3315816  -11.35905  0.24%  15.5    2s
* 4604  1713              45     -11.3316124  -11.35905  0.24%  15.5    2s
* 4966  1828              44     -11.3316598  -11.34948  0.16%  15.1    2s
* 4971  1828              46     -11.3316837  -11.34948  0.16%  15.1    2s
* 4980  1828              54     -11.3322338  -11.34948  0.15%  15.1    2s
* 5166  1786              55     -11.3328533  -11.34558  0.11%  14.9    2s
* 5534  1784              47     -11.3336382  -11.34558  0.11%  14.6    2s
* 6191  1775              53     -11.3336460  -11.34329  0.09%  14.0    2s
* 6421  1768              51     -11.3338189  -11.34329  0.08%  14.0    2s
* 6717  1738              52     -11.3338243  -11.34224  0.07%  13.7    3s
* 6900  1720              42     -11.3338743  -11.34224  0.07%  13.7    3s
* 7053  1720              51     -11.3339527  -11.34224  0.07%  13.7    3s
* 7746  1747              55     -11.3339727  -11.33992  0.05%  13.4    3s
* 7748  1747              55     -11.3339729  -11.33992  0.05%  13.4    3s
* 8097  1731              47     -11.3339956  -11.33989  0.05%  13.2    3s
* 9109  1749              49     -11.3340159  -11.33714  0.03%  12.7    3s
* 9208  1749              43     -11.3340975  -11.33714  0.03%  12.7    3s
* 9211  1749              43     -11.3340979  -11.33714  0.03%  12.7    3s
* 9987  1721              47     -11.3341251  -11.33509  0.01%  12.2    3s
* 9988  1721              47     -11.3341255  -11.33509  0.01%  12.2    3s
*10241  1721              47     -11.3341437  -11.33509  0.01%  12.0    3s

Cutting planes:
  RLT: 21
  BQP: 1
  PSD: 87

Explored 10326 nodes (124652 simplex iterations) in 4.00 seconds
Thread count was 32 (of 72 available processors)

Solution count 10: -11.3341 -11.3341 -11.3341 ... -11.3338

Optimal solution found (tolerance 1.00e-04)
Best objective -1.133414367841e+01, best bound -1.133509470616e+01, gap 0.0084%

User-callback calls 21351, time in user-callback 0.00 sec



objective value: -11.334143678405937
objective bound: -11.335094706157427
x_opt: [1.0, 1.0000000060442495, 0.15282743974116184, 0.16742995855866674, 0.0, 0.0, 1.0, 0.0, 0.0, 0.0, 1.0, 0.0, 1.0, 1.0, 0.03567924507775614, 1.0, 0.0, 1.0, 0.0, 5.995274953157207e-6, 0.7527666604008123, 0.6964047266984733, 0.0, 0.7588048891354823, 0.0, 0.8527114169393967, 0.0, 1.0, 0.0, 0.0, 1.0, 0.905359217777644, 0.0, 0.22185561257146294, 1.0, 1.0, 0.2185283847244813, 1.0, 0.0, 1.0, 1.0, 0.0, 1.0, 0.0, 0.0, 0.0, 0.7645269381599425, 0.11216065163329009, 1.0, 0.016282380695677747]
GUROBI solution time: 3.998546838760376




